;; translated from ./ctigar/seq-proc.c.vmt
;; original benchmark available at: https://es-static.fbk.eu/people/griggio/ic3ia/index.html
;; author: Alberto Griggio <griggio@fbk.eu>
(set-logic HORN)
(declare-fun state (Bool Bool Bool Bool Bool Int Int Int Int Int Int Int) Bool)
(assert (forall ((|.s.2| Bool) (|.s.3| Bool) (|.s.0| Bool) (|.s.1| Bool) (|.s.0.next| Bool) (|.s.1.next| Bool) (|.s.2.next| Bool) (|.s.3.next| Bool) (|.s.4.next| Bool) (|main.j1.next| Int) (|main.j1| Int) (|main.k.next| Int) (|main.k| Int) (|main.n0.next| Int) (|main.n0| Int) (|main.j0.next| Int) (|main.j0| Int) (|main.i1.next| Int) (|main.i1| Int) (|main.i0.next| Int) (|main.i0| Int) (|main.n1.next| Int) (|main.n1| Int) (|.s.4| Bool)) (=> (let ((.def_20 (not .s.4)))
(let ((.def_17 (not .s.3)))
(let ((.def_14 (not .s.2)))
(let ((.def_10 (not .s.1)))
(let ((.def_12 (and .def_10 .s.0)))
(let ((.def_15 (and .def_12 .def_14)))
(let ((.def_18 (and .def_15 .def_17)))
(let ((.def_21 (and .def_18 .def_20)))
.def_21)))))))) (state |.s.1| |.s.0| |.s.2| |.s.3| |.s.4| |main.n1| |main.i0| |main.i1| |main.j0| |main.n0| |main.k| |main.j1|))))
(assert (forall ((|.s.2| Bool) (|.s.3| Bool) (|.s.0| Bool) (|.s.1| Bool) (|.s.0.next| Bool) (|.s.1.next| Bool) (|.s.2.next| Bool) (|.s.3.next| Bool) (|.s.4.next| Bool) (|main.j1.next| Int) (|main.j1| Int) (|main.k.next| Int) (|main.k| Int) (|main.n0.next| Int) (|main.n0| Int) (|main.j0.next| Int) (|main.j0| Int) (|main.i1.next| Int) (|main.i1| Int) (|main.i0.next| Int) (|main.i0| Int) (|main.n1.next| Int) (|main.n1| Int) (|.s.4| Bool)) (=> (and (state |.s.1| |.s.0| |.s.2| |.s.3| |.s.4| |main.n1| |main.i0| |main.i1| |main.j0| |main.n0| |main.k| |main.j1|) (let ((.def_22 (not .s.0)))
(let ((.def_10 (not .s.1)))
(let ((.def_23 (and .def_10 .def_22)))
(let ((.def_14 (not .s.2)))
(let ((.def_125 (and .def_14 .def_23)))
(let ((.def_17 (not .s.3)))
(let ((.def_260 (and .def_17 .def_125)))
(let ((.def_20 (not .s.4)))
(let ((.def_501 (and .def_20 .def_260)))
(let ((.def_502 (not .def_501)))
(let ((.def_58 (not .s.0.next)))
(let ((.def_56 (not .s.1.next)))
(let ((.def_59 (and .def_56 .def_58)))
(let ((.def_54 (not .s.2.next)))
(let ((.def_60 (and .def_54 .def_59)))
(let ((.def_52 (not .s.3.next)))
(let ((.def_61 (and .def_52 .def_60)))
(let ((.def_50 (not .s.4.next)))
(let ((.def_62 (and .def_50 .def_61)))
(let ((.def_48 (= main.j1 main.j1.next)))
(let ((.def_63 (and .def_48 .def_62)))
(let ((.def_45 (= main.k main.k.next)))
(let ((.def_64 (and .def_45 .def_63)))
(let ((.def_42 (= main.n0 main.n0.next)))
(let ((.def_65 (and .def_42 .def_64)))
(let ((.def_39 (= main.j0 main.j0.next)))
(let ((.def_66 (and .def_39 .def_65)))
(let ((.def_36 (= main.i1 main.i1.next)))
(let ((.def_67 (and .def_36 .def_66)))
(let ((.def_33 (= main.i0 main.i0.next)))
(let ((.def_68 (and .def_33 .def_67)))
(let ((.def_30 (= main.n1 main.n1.next)))
(let ((.def_69 (and .def_30 .def_68)))
(let ((.def_503 (or .def_69 .def_502)))
(let ((.def_492 (= main.k.next 0)))
(let ((.def_108 (and .s.1.next .def_58)))
(let ((.def_109 (and .def_54 .def_108)))
(let ((.def_250 (and .def_52 .def_109)))
(let ((.def_433 (and .def_50 .def_250)))
(let ((.def_493 (and .def_433 .def_492)))
(let ((.def_491 (= main.i0.next 0)))
(let ((.def_494 (and .def_491 .def_493)))
(let ((.def_495 (and .def_48 .def_494)))
(let ((.def_496 (and .def_42 .def_495)))
(let ((.def_497 (and .def_39 .def_496)))
(let ((.def_498 (and .def_36 .def_497)))
(let ((.def_499 (and .def_30 .def_498)))
(let ((.def_12 (and .def_10 .s.0)))
(let ((.def_15 (and .def_12 .def_14)))
(let ((.def_18 (and .def_15 .def_17)))
(let ((.def_21 (and .def_18 .def_20)))
(let ((.def_490 (not .def_21)))
(let ((.def_500 (or .def_490 .def_499)))
(let ((.def_504 (and .def_500 .def_503)))
(let ((.def_186 (and .s.2.next .def_108)))
(let ((.def_187 (and .def_52 .def_186)))
(let ((.def_481 (and .def_50 .def_187)))
(let ((.def_482 (and .def_48 .def_481)))
(let ((.def_483 (and .def_45 .def_482)))
(let ((.def_484 (and .def_42 .def_483)))
(let ((.def_485 (and .def_39 .def_484)))
(let ((.def_486 (and .def_36 .def_485)))
(let ((.def_487 (and .def_33 .def_486)))
(let ((.def_488 (and .def_30 .def_487)))
(let ((.def_466 (<= main.n0 main.i0)))
(let ((.def_88 (and .s.1 .def_22)))
(let ((.def_89 (and .def_14 .def_88)))
(let ((.def_235 (and .def_17 .def_89)))
(let ((.def_465 (and .def_20 .def_235)))
(let ((.def_479 (and .def_465 .def_466)))
(let ((.def_480 (not .def_479)))
(let ((.def_489 (or .def_480 .def_488)))
(let ((.def_505 (and .def_489 .def_504)))
(let ((.def_76 (and .s.1.next .s.0.next)))
(let ((.def_77 (and .def_54 .def_76)))
(let ((.def_225 (and .def_52 .def_77)))
(let ((.def_470 (and .def_50 .def_225)))
(let ((.def_471 (and .def_48 .def_470)))
(let ((.def_472 (and .def_45 .def_471)))
(let ((.def_473 (and .def_42 .def_472)))
(let ((.def_474 (and .def_39 .def_473)))
(let ((.def_475 (and .def_36 .def_474)))
(let ((.def_476 (and .def_33 .def_475)))
(let ((.def_477 (and .def_30 .def_476)))
(let ((.def_467 (not .def_466)))
(let ((.def_468 (and .def_465 .def_467)))
(let ((.def_469 (not .def_468)))
(let ((.def_478 (or .def_469 .def_477)))
(let ((.def_506 (and .def_478 .def_505)))
(let ((.def_199 (and .s.2.next .def_59)))
(let ((.def_310 (and .def_52 .def_199)))
(let ((.def_456 (and .def_50 .def_310)))
(let ((.def_383 (* (- 1) main.i0.next)))
(let ((.def_384 (+ main.i0 .def_383)))
(let ((.def_455 (= .def_384 (- 1))))
(let ((.def_457 (and .def_455 .def_456)))
(let ((.def_458 (and .def_48 .def_457)))
(let ((.def_459 (and .def_45 .def_458)))
(let ((.def_460 (and .def_42 .def_459)))
(let ((.def_461 (and .def_39 .def_460)))
(let ((.def_462 (and .def_36 .def_461)))
(let ((.def_463 (and .def_30 .def_462)))
(let ((.def_71 (and .s.1 .s.0)))
(let ((.def_72 (and .def_14 .def_71)))
(let ((.def_222 (and .def_17 .def_72)))
(let ((.def_453 (and .def_20 .def_222)))
(let ((.def_454 (not .def_453)))
(let ((.def_464 (or .def_454 .def_463)))
(let ((.def_507 (and .def_464 .def_506)))
(let ((.def_93 (and .def_56 .s.0.next)))
(let ((.def_94 (and .s.2.next .def_93)))
(let ((.def_95 (and .def_52 .def_94)))
(let ((.def_444 (and .def_50 .def_95)))
(let ((.def_114 (* (- 1) main.k.next)))
(let ((.def_115 (+ main.k .def_114)))
(let ((.def_358 (= .def_115 (- 1))))
(let ((.def_445 (and .def_358 .def_444)))
(let ((.def_446 (and .def_48 .def_445)))
(let ((.def_447 (and .def_42 .def_446)))
(let ((.def_448 (and .def_39 .def_447)))
(let ((.def_449 (and .def_36 .def_448)))
(let ((.def_450 (and .def_33 .def_449)))
(let ((.def_451 (and .def_30 .def_450)))
(let ((.def_24 (and .s.2 .def_23)))
(let ((.def_210 (and .def_17 .def_24)))
(let ((.def_442 (and .def_20 .def_210)))
(let ((.def_443 (not .def_442)))
(let ((.def_452 (or .def_443 .def_451)))
(let ((.def_508 (and .def_452 .def_507)))
(let ((.def_434 (and .def_48 .def_433)))
(let ((.def_435 (and .def_45 .def_434)))
(let ((.def_436 (and .def_42 .def_435)))
(let ((.def_437 (and .def_39 .def_436)))
(let ((.def_438 (and .def_36 .def_437)))
(let ((.def_439 (and .def_33 .def_438)))
(let ((.def_440 (and .def_30 .def_439)))
(let ((.def_179 (and .def_12 .s.2)))
(let ((.def_180 (and .def_17 .def_179)))
(let ((.def_431 (and .def_20 .def_180)))
(let ((.def_432 (not .def_431)))
(let ((.def_441 (or .def_432 .def_440)))
(let ((.def_509 (and .def_441 .def_508)))
(let ((.def_422 (= main.i1.next 0)))
(let ((.def_165 (and .s.2.next .def_76)))
(let ((.def_166 (and .def_52 .def_165)))
(let ((.def_346 (and .def_50 .def_166)))
(let ((.def_423 (and .def_346 .def_422)))
(let ((.def_424 (and .def_48 .def_423)))
(let ((.def_425 (and .def_45 .def_424)))
(let ((.def_426 (and .def_42 .def_425)))
(let ((.def_427 (and .def_39 .def_426)))
(let ((.def_428 (and .def_33 .def_427)))
(let ((.def_429 (and .def_30 .def_428)))
(let ((.def_157 (and .s.2 .def_88)))
(let ((.def_158 (and .def_17 .def_157)))
(let ((.def_420 (and .def_20 .def_158)))
(let ((.def_421 (not .def_420)))
(let ((.def_430 (or .def_421 .def_429)))
(let ((.def_510 (and .def_430 .def_509)))
(let ((.def_200 (and .s.3.next .def_199)))
(let ((.def_411 (and .def_50 .def_200)))
(let ((.def_412 (and .def_48 .def_411)))
(let ((.def_413 (and .def_45 .def_412)))
(let ((.def_414 (and .def_42 .def_413)))
(let ((.def_415 (and .def_39 .def_414)))
(let ((.def_416 (and .def_36 .def_415)))
(let ((.def_417 (and .def_33 .def_416)))
(let ((.def_418 (and .def_30 .def_417)))
(let ((.def_396 (<= main.n1 main.i1)))
(let ((.def_143 (and .s.2 .def_71)))
(let ((.def_144 (and .def_17 .def_143)))
(let ((.def_395 (and .def_20 .def_144)))
(let ((.def_409 (and .def_395 .def_396)))
(let ((.def_410 (not .def_409)))
(let ((.def_419 (or .def_410 .def_418)))
(let ((.def_511 (and .def_419 .def_510)))
(let ((.def_147 (and .s.3.next .def_60)))
(let ((.def_400 (and .def_50 .def_147)))
(let ((.def_401 (and .def_48 .def_400)))
(let ((.def_402 (and .def_45 .def_401)))
(let ((.def_403 (and .def_42 .def_402)))
(let ((.def_404 (and .def_39 .def_403)))
(let ((.def_405 (and .def_36 .def_404)))
(let ((.def_406 (and .def_33 .def_405)))
(let ((.def_407 (and .def_30 .def_406)))
(let ((.def_397 (not .def_396)))
(let ((.def_398 (and .def_395 .def_397)))
(let ((.def_399 (not .def_398)))
(let ((.def_408 (or .def_399 .def_407)))
(let ((.def_512 (and .def_408 .def_511)))
(let ((.def_132 (and .def_54 .def_93)))
(let ((.def_133 (and .s.3.next .def_132)))
(let ((.def_386 (and .def_50 .def_133)))
(let ((.def_385 (= .def_384 1)))
(let ((.def_387 (and .def_385 .def_386)))
(let ((.def_388 (and .def_48 .def_387)))
(let ((.def_389 (and .def_45 .def_388)))
(let ((.def_390 (and .def_42 .def_389)))
(let ((.def_391 (and .def_39 .def_390)))
(let ((.def_392 (and .def_36 .def_391)))
(let ((.def_393 (and .def_30 .def_392)))
(let ((.def_126 (and .s.3 .def_125)))
(let ((.def_381 (and .def_20 .def_126)))
(let ((.def_382 (not .def_381)))
(let ((.def_394 (or .def_382 .def_393)))
(let ((.def_513 (and .def_394 .def_512)))
(let ((.def_110 (and .s.3.next .def_109)))
(let ((.def_372 (and .def_50 .def_110)))
(let ((.def_369 (* (- 1) main.i1.next)))
(let ((.def_370 (+ main.i1 .def_369)))
(let ((.def_371 (= .def_370 (- 1))))
(let ((.def_373 (and .def_371 .def_372)))
(let ((.def_374 (and .def_48 .def_373)))
(let ((.def_375 (and .def_45 .def_374)))
(let ((.def_376 (and .def_42 .def_375)))
(let ((.def_377 (and .def_39 .def_376)))
(let ((.def_378 (and .def_33 .def_377)))
(let ((.def_379 (and .def_30 .def_378)))
(let ((.def_105 (and .def_15 .s.3)))
(let ((.def_367 (and .def_20 .def_105)))
(let ((.def_368 (not .def_367)))
(let ((.def_380 (or .def_368 .def_379)))
(let ((.def_514 (and .def_380 .def_513)))
(let ((.def_78 (and .s.3.next .def_77)))
(let ((.def_357 (and .def_50 .def_78)))
(let ((.def_359 (and .def_357 .def_358)))
(let ((.def_360 (and .def_48 .def_359)))
(let ((.def_361 (and .def_42 .def_360)))
(let ((.def_362 (and .def_39 .def_361)))
(let ((.def_363 (and .def_36 .def_362)))
(let ((.def_364 (and .def_33 .def_363)))
(let ((.def_365 (and .def_30 .def_364)))
(let ((.def_90 (and .s.3 .def_89)))
(let ((.def_355 (and .def_20 .def_90)))
(let ((.def_356 (not .def_355)))
(let ((.def_366 (or .def_356 .def_365)))
(let ((.def_515 (and .def_366 .def_514)))
(let ((.def_347 (and .def_48 .def_346)))
(let ((.def_348 (and .def_45 .def_347)))
(let ((.def_349 (and .def_42 .def_348)))
(let ((.def_350 (and .def_39 .def_349)))
(let ((.def_351 (and .def_36 .def_350)))
(let ((.def_352 (and .def_33 .def_351)))
(let ((.def_353 (and .def_30 .def_352)))
(let ((.def_73 (and .s.3 .def_72)))
(let ((.def_344 (and .def_20 .def_73)))
(let ((.def_345 (not .def_344)))
(let ((.def_354 (or .def_345 .def_353)))
(let ((.def_516 (and .def_354 .def_515)))
(let ((.def_335 (= main.j1.next 0)))
(let ((.def_238 (and .s.3.next .def_94)))
(let ((.def_239 (and .def_50 .def_238)))
(let ((.def_336 (and .def_239 .def_335)))
(let ((.def_337 (and .def_45 .def_336)))
(let ((.def_338 (and .def_42 .def_337)))
(let ((.def_339 (and .def_39 .def_338)))
(let ((.def_340 (and .def_36 .def_339)))
(let ((.def_341 (and .def_33 .def_340)))
(let ((.def_342 (and .def_30 .def_341)))
(let ((.def_25 (and .s.3 .def_24)))
(let ((.def_333 (and .def_20 .def_25)))
(let ((.def_334 (not .def_333)))
(let ((.def_343 (or .def_334 .def_342)))
(let ((.def_517 (and .def_343 .def_516)))
(let ((.def_323 (and .s.3.next .def_186)))
(let ((.def_324 (and .def_50 .def_323)))
(let ((.def_325 (and .def_48 .def_324)))
(let ((.def_326 (and .def_45 .def_325)))
(let ((.def_327 (and .def_42 .def_326)))
(let ((.def_328 (and .def_39 .def_327)))
(let ((.def_329 (and .def_36 .def_328)))
(let ((.def_330 (and .def_33 .def_329)))
(let ((.def_331 (and .def_30 .def_330)))
(let ((.def_307 (<= main.n1 main.j1)))
(let ((.def_320 (not .def_307)))
(let ((.def_305 (and .s.3 .def_179)))
(let ((.def_306 (and .def_20 .def_305)))
(let ((.def_321 (and .def_306 .def_320)))
(let ((.def_322 (not .def_321)))
(let ((.def_332 (or .def_322 .def_331)))
(let ((.def_518 (and .def_332 .def_517)))
(let ((.def_311 (and .s.4.next .def_310)))
(let ((.def_312 (and .def_48 .def_311)))
(let ((.def_313 (and .def_45 .def_312)))
(let ((.def_314 (and .def_42 .def_313)))
(let ((.def_315 (and .def_39 .def_314)))
(let ((.def_316 (and .def_36 .def_315)))
(let ((.def_317 (and .def_33 .def_316)))
(let ((.def_318 (and .def_30 .def_317)))
(let ((.def_308 (and .def_306 .def_307)))
(let ((.def_309 (not .def_308)))
(let ((.def_319 (or .def_309 .def_318)))
(let ((.def_519 (and .def_319 .def_518)))
(let ((.def_288 (and .s.3 .def_157)))
(let ((.def_289 (and .def_20 .def_288)))
(let ((.def_161 (<= main.k 0)))
(let ((.def_302 (and .def_161 .def_289)))
(let ((.def_303 (not .def_302)))
(let ((.def_226 (and .s.4.next .def_225)))
(let ((.def_227 (and .def_48 .def_226)))
(let ((.def_228 (and .def_45 .def_227)))
(let ((.def_229 (and .def_42 .def_228)))
(let ((.def_230 (and .def_39 .def_229)))
(let ((.def_231 (and .def_36 .def_230)))
(let ((.def_232 (and .def_33 .def_231)))
(let ((.def_233 (and .def_30 .def_232)))
(let ((.def_304 (or .def_233 .def_303)))
(let ((.def_520 (and .def_304 .def_519)))
(let ((.def_292 (and .s.3.next .def_165)))
(let ((.def_293 (and .def_50 .def_292)))
(let ((.def_294 (and .def_48 .def_293)))
(let ((.def_295 (and .def_45 .def_294)))
(let ((.def_296 (and .def_42 .def_295)))
(let ((.def_297 (and .def_39 .def_296)))
(let ((.def_298 (and .def_36 .def_297)))
(let ((.def_299 (and .def_33 .def_298)))
(let ((.def_300 (and .def_30 .def_299)))
(let ((.def_162 (not .def_161)))
(let ((.def_290 (and .def_162 .def_289)))
(let ((.def_291 (not .def_290)))
(let ((.def_301 (or .def_291 .def_300)))
(let ((.def_521 (and .def_301 .def_520)))
(let ((.def_279 (and .s.4.next .def_61)))
(let ((.def_280 (and .def_48 .def_279)))
(let ((.def_281 (and .def_45 .def_280)))
(let ((.def_282 (and .def_42 .def_281)))
(let ((.def_283 (and .def_39 .def_282)))
(let ((.def_284 (and .def_36 .def_283)))
(let ((.def_285 (and .def_33 .def_284)))
(let ((.def_286 (and .def_30 .def_285)))
(let ((.def_276 (and .s.3 .def_143)))
(let ((.def_277 (and .def_20 .def_276)))
(let ((.def_278 (not .def_277)))
(let ((.def_287 (or .def_278 .def_286)))
(let ((.def_522 (and .def_287 .def_521)))
(let ((.def_266 (and .def_52 .def_132)))
(let ((.def_267 (and .s.4.next .def_266)))
(let ((.def_263 (* (- 1) main.j1.next)))
(let ((.def_264 (+ main.j1 .def_263)))
(let ((.def_265 (= .def_264 (- 1))))
(let ((.def_268 (and .def_265 .def_267)))
(let ((.def_269 (and .def_45 .def_268)))
(let ((.def_270 (and .def_42 .def_269)))
(let ((.def_271 (and .def_39 .def_270)))
(let ((.def_272 (and .def_36 .def_271)))
(let ((.def_273 (and .def_33 .def_272)))
(let ((.def_274 (and .def_30 .def_273)))
(let ((.def_261 (and .s.4 .def_260)))
(let ((.def_262 (not .def_261)))
(let ((.def_275 (or .def_262 .def_274)))
(let ((.def_523 (and .def_275 .def_522)))
(let ((.def_251 (and .s.4.next .def_250)))
(let ((.def_116 (= .def_115 1)))
(let ((.def_252 (and .def_116 .def_251)))
(let ((.def_253 (and .def_48 .def_252)))
(let ((.def_254 (and .def_42 .def_253)))
(let ((.def_255 (and .def_39 .def_254)))
(let ((.def_256 (and .def_36 .def_255)))
(let ((.def_257 (and .def_33 .def_256)))
(let ((.def_258 (and .def_30 .def_257)))
(let ((.def_248 (and .def_18 .s.4)))
(let ((.def_249 (not .def_248)))
(let ((.def_259 (or .def_249 .def_258)))
(let ((.def_524 (and .def_259 .def_523)))
(let ((.def_240 (and .def_48 .def_239)))
(let ((.def_241 (and .def_45 .def_240)))
(let ((.def_242 (and .def_42 .def_241)))
(let ((.def_243 (and .def_39 .def_242)))
(let ((.def_244 (and .def_36 .def_243)))
(let ((.def_245 (and .def_33 .def_244)))
(let ((.def_246 (and .def_30 .def_245)))
(let ((.def_236 (and .s.4 .def_235)))
(let ((.def_237 (not .def_236)))
(let ((.def_247 (or .def_237 .def_246)))
(let ((.def_525 (and .def_247 .def_524)))
(let ((.def_223 (and .s.4 .def_222)))
(let ((.def_224 (not .def_223)))
(let ((.def_234 (or .def_224 .def_233)))
(let ((.def_526 (and .def_234 .def_525)))
(let ((.def_213 (= main.j0.next 0)))
(let ((.def_96 (and .s.4.next .def_95)))
(let ((.def_214 (and .def_96 .def_213)))
(let ((.def_215 (and .def_48 .def_214)))
(let ((.def_216 (and .def_45 .def_215)))
(let ((.def_217 (and .def_42 .def_216)))
(let ((.def_218 (and .def_36 .def_217)))
(let ((.def_219 (and .def_33 .def_218)))
(let ((.def_220 (and .def_30 .def_219)))
(let ((.def_211 (and .s.4 .def_210)))
(let ((.def_212 (not .def_211)))
(let ((.def_221 (or .def_212 .def_220)))
(let ((.def_527 (and .def_221 .def_526)))
(let ((.def_201 (and .s.4.next .def_200)))
(let ((.def_202 (and .def_48 .def_201)))
(let ((.def_203 (and .def_45 .def_202)))
(let ((.def_204 (and .def_42 .def_203)))
(let ((.def_205 (and .def_39 .def_204)))
(let ((.def_206 (and .def_36 .def_205)))
(let ((.def_207 (and .def_33 .def_206)))
(let ((.def_208 (and .def_30 .def_207)))
(let ((.def_182 (<= main.n0 main.j0)))
(let ((.def_181 (and .s.4 .def_180)))
(let ((.def_197 (and .def_181 .def_182)))
(let ((.def_198 (not .def_197)))
(let ((.def_209 (or .def_198 .def_208)))
(let ((.def_528 (and .def_209 .def_527)))
(let ((.def_188 (and .s.4.next .def_187)))
(let ((.def_189 (and .def_48 .def_188)))
(let ((.def_190 (and .def_45 .def_189)))
(let ((.def_191 (and .def_42 .def_190)))
(let ((.def_192 (and .def_39 .def_191)))
(let ((.def_193 (and .def_36 .def_192)))
(let ((.def_194 (and .def_33 .def_193)))
(let ((.def_195 (and .def_30 .def_194)))
(let ((.def_183 (not .def_182)))
(let ((.def_184 (and .def_181 .def_183)))
(let ((.def_185 (not .def_184)))
(let ((.def_196 (or .def_185 .def_195)))
(let ((.def_529 (and .def_196 .def_528)))
(let ((.def_159 (and .s.4 .def_158)))
(let ((.def_176 (and .def_159 .def_161)))
(let ((.def_177 (not .def_176)))
(let ((.def_79 (and .s.4.next .def_78)))
(let ((.def_80 (and .def_48 .def_79)))
(let ((.def_81 (and .def_45 .def_80)))
(let ((.def_82 (and .def_42 .def_81)))
(let ((.def_83 (and .def_39 .def_82)))
(let ((.def_84 (and .def_36 .def_83)))
(let ((.def_85 (and .def_33 .def_84)))
(let ((.def_86 (and .def_30 .def_85)))
(let ((.def_178 (or .def_86 .def_177)))
(let ((.def_530 (and .def_178 .def_529)))
(let ((.def_167 (and .s.4.next .def_166)))
(let ((.def_168 (and .def_48 .def_167)))
(let ((.def_169 (and .def_45 .def_168)))
(let ((.def_170 (and .def_42 .def_169)))
(let ((.def_171 (and .def_39 .def_170)))
(let ((.def_172 (and .def_36 .def_171)))
(let ((.def_173 (and .def_33 .def_172)))
(let ((.def_174 (and .def_30 .def_173)))
(let ((.def_163 (and .def_159 .def_162)))
(let ((.def_164 (not .def_163)))
(let ((.def_175 (or .def_164 .def_174)))
(let ((.def_531 (and .def_175 .def_530)))
(let ((.def_148 (and .s.4.next .def_147)))
(let ((.def_149 (and .def_48 .def_148)))
(let ((.def_150 (and .def_45 .def_149)))
(let ((.def_151 (and .def_42 .def_150)))
(let ((.def_152 (and .def_39 .def_151)))
(let ((.def_153 (and .def_36 .def_152)))
(let ((.def_154 (and .def_33 .def_153)))
(let ((.def_155 (and .def_30 .def_154)))
(let ((.def_145 (and .s.4 .def_144)))
(let ((.def_146 (not .def_145)))
(let ((.def_156 (or .def_146 .def_155)))
(let ((.def_532 (and .def_156 .def_531)))
(let ((.def_134 (and .s.4.next .def_133)))
(let ((.def_129 (* (- 1) main.j0.next)))
(let ((.def_130 (+ main.j0 .def_129)))
(let ((.def_131 (= .def_130 (- 1))))
(let ((.def_135 (and .def_131 .def_134)))
(let ((.def_136 (and .def_48 .def_135)))
(let ((.def_137 (and .def_45 .def_136)))
(let ((.def_138 (and .def_42 .def_137)))
(let ((.def_139 (and .def_36 .def_138)))
(let ((.def_140 (and .def_33 .def_139)))
(let ((.def_141 (and .def_30 .def_140)))
(let ((.def_127 (and .s.4 .def_126)))
(let ((.def_128 (not .def_127)))
(let ((.def_142 (or .def_128 .def_141)))
(let ((.def_533 (and .def_142 .def_532)))
(let ((.def_111 (and .s.4.next .def_110)))
(let ((.def_117 (and .def_111 .def_116)))
(let ((.def_118 (and .def_48 .def_117)))
(let ((.def_119 (and .def_42 .def_118)))
(let ((.def_120 (and .def_39 .def_119)))
(let ((.def_121 (and .def_36 .def_120)))
(let ((.def_122 (and .def_33 .def_121)))
(let ((.def_123 (and .def_30 .def_122)))
(let ((.def_106 (and .s.4 .def_105)))
(let ((.def_107 (not .def_106)))
(let ((.def_124 (or .def_107 .def_123)))
(let ((.def_534 (and .def_124 .def_533)))
(let ((.def_97 (and .def_48 .def_96)))
(let ((.def_98 (and .def_45 .def_97)))
(let ((.def_99 (and .def_42 .def_98)))
(let ((.def_100 (and .def_39 .def_99)))
(let ((.def_101 (and .def_36 .def_100)))
(let ((.def_102 (and .def_33 .def_101)))
(let ((.def_103 (and .def_30 .def_102)))
(let ((.def_91 (and .s.4 .def_90)))
(let ((.def_92 (not .def_91)))
(let ((.def_104 (or .def_92 .def_103)))
(let ((.def_535 (and .def_104 .def_534)))
(let ((.def_74 (and .s.4 .def_73)))
(let ((.def_75 (not .def_74)))
(let ((.def_87 (or .def_75 .def_86)))
(let ((.def_536 (and .def_87 .def_535)))
(let ((.def_26 (and .s.4 .def_25)))
(let ((.def_27 (not .def_26)))
(let ((.def_70 (or .def_27 .def_69)))
(let ((.def_537 (and .def_70 .def_536)))
.def_537))))))))))))))))))))))))))))))))))))))))))))))))))))))))))))))))))))))))))))))))))))))))))))))))))))))))))))))))))))))))))))))))))))))))))))))))))))))))))))))))))))))))))))))))))))))))))))))))))))))))))))))))))))))))))))))))))))))))))))))))))))))))))))))))))))))))))))))))))))))))))))))))))))))))))))))))))))))))))))))))))))))))))))))))))))))))))))))))))))))))))))))))))))))))))))))))))))))))))))))))))))))))))))))))))))))))))))))))))))))))))))))))))))))))))))))))))))))))))))))))))))))))))))))))))))))) (state |.s.1.next| |.s.0.next| |.s.2.next| |.s.3.next| |.s.4.next| |main.n1.next| |main.i0.next| |main.i1.next| |main.j0.next| |main.n0.next| |main.k.next| |main.j1.next|))))
(assert (forall ((|.s.2| Bool) (|.s.3| Bool) (|.s.0| Bool) (|.s.1| Bool) (|.s.0.next| Bool) (|.s.1.next| Bool) (|.s.2.next| Bool) (|.s.3.next| Bool) (|.s.4.next| Bool) (|main.j1.next| Int) (|main.j1| Int) (|main.k.next| Int) (|main.k| Int) (|main.n0.next| Int) (|main.n0| Int) (|main.j0.next| Int) (|main.j0| Int) (|main.i1.next| Int) (|main.i1| Int) (|main.i0.next| Int) (|main.i0| Int) (|main.n1.next| Int) (|main.n1| Int) (|.s.4| Bool)) (=> (state |.s.1| |.s.0| |.s.2| |.s.3| |.s.4| |main.n1| |main.i0| |main.i1| |main.j0| |main.n0| |main.k| |main.j1|) (let ((.def_71 (and .s.1 .s.0)))
(let ((.def_14 (not .s.2)))
(let ((.def_72 (and .def_14 .def_71)))
(let ((.def_17 (not .s.3)))
(let ((.def_222 (and .def_17 .def_72)))
(let ((.def_223 (and .s.4 .def_222)))
(let ((.def_224 (not .def_223)))
(let ((.def_73 (and .s.3 .def_72)))
(let ((.def_74 (and .s.4 .def_73)))
(let ((.def_75 (not .def_74)))
(let ((.def_538 (and .def_75 .def_224)))
.def_538))))))))))))))
(check-sat)
